c File: data_files/evolved_graphs/g0457.col
c
c Auto generated graph
c
p edge 100 635
e 1 5
e 1 9
e 1 16
e 1 19
e 1 22
e 1 23
e 1 25
e 1 29
e 1 30
e 1 41
e 1 43
e 1 47
e 1 48
e 1 53
e 1 56
e 1 57
e 1 60
e 1 61
e 1 62
e 1 64
e 1 71
e 1 74
e 1 76
e 1 78
e 1 79
e 1 83
e 1 84
e 1 85
e 1 87
e 1 88
e 1 90
e 1 92
e 1 93
e 1 96
e 1 98
e 1 100
e 2 14
e 2 18
e 2 22
e 2 25
e 2 26
e 2 27
e 2 28
e 2 29
e 2 44
e 2 49
e 2 54
e 2 55
e 2 58
e 2 66
e 2 68
e 2 69
e 2 75
e 2 76
e 2 77
e 2 86
e 2 89
e 2 91
e 2 95
e 3 12
e 3 13
e 3 15
e 3 17
e 3 18
e 3 22
e 3 26
e 3 28
e 3 32
e 3 33
e 3 35
e 3 38
e 3 41
e 3 42
e 3 45
e 3 48
e 3 49
e 3 50
e 3 55
e 3 57
e 3 62
e 3 68
e 3 71
e 3 73
e 3 75
e 3 76
e 3 77
e 3 82
e 3 85
e 3 87
e 3 88
e 3 90
e 3 94
e 3 96
e 3 97
e 4 16
e 4 19
e 4 20
e 4 21
e 4 22
e 4 28
e 4 29
e 4 38
e 4 42
e 4 43
e 4 45
e 4 49
e 4 50
e 4 52
e 4 55
e 4 56
e 4 59
e 4 61
e 4 71
e 4 74
e 4 76
e 4 78
e 4 79
e 4 82
e 4 83
e 4 85
e 4 89
e 4 91
e 4 98
e 4 99
e 4 100
e 5 13
e 5 17
e 5 20
e 5 21
e 5 23
e 5 33
e 5 40
e 5 42
e 5 45
e 5 46
e 5 49
e 5 51
e 5 54
e 5 58
e 5 59
e 5 63
e 5 64
e 5 65
e 5 67
e 5 68
e 5 69
e 5 70
e 5 75
e 5 78
e 5 79
e 5 80
e 5 83
e 5 87
e 5 88
e 5 90
e 5 96
e 5 100
e 6 13
e 6 19
e 6 25
e 6 26
e 6 29
e 6 31
e 6 32
e 6 33
e 6 35
e 6 36
e 6 37
e 6 38
e 6 41
e 6 50
e 6 51
e 6 54
e 6 55
e 6 56
e 6 57
e 6 60
e 6 63
e 6 64
e 6 67
e 6 72
e 6 73
e 6 75
e 6 78
e 6 80
e 6 88
e 6 89
e 6 91
e 7 10
e 7 14
e 7 15
e 7 16
e 7 18
e 7 19
e 7 32
e 7 34
e 7 35
e 7 37
e 7 46
e 7 48
e 7 49
e 7 55
e 7 60
e 7 63
e 7 66
e 7 67
e 7 68
e 7 71
e 7 73
e 7 74
e 7 75
e 7 76
e 7 81
e 7 82
e 7 84
e 7 89
e 7 91
e 7 93
e 7 96
e 7 97
e 8 14
e 8 15
e 8 18
e 8 19
e 8 28
e 8 29
e 8 30
e 8 31
e 8 32
e 8 34
e 8 35
e 8 42
e 8 45
e 8 53
e 8 54
e 8 55
e 8 58
e 8 59
e 8 65
e 8 66
e 8 70
e 8 72
e 8 78
e 8 87
e 8 88
e 8 91
e 8 94
e 8 95
e 9 12
e 9 17
e 9 18
e 9 20
e 9 21
e 9 23
e 9 30
e 9 32
e 9 33
e 9 36
e 9 46
e 9 49
e 9 51
e 9 53
e 9 62
e 9 63
e 9 64
e 9 66
e 9 69
e 9 72
e 9 75
e 9 78
e 9 83
e 9 89
e 9 90
e 9 92
e 9 93
e 9 95
e 9 98
e 10 13
e 10 19
e 10 20
e 10 33
e 10 35
e 10 37
e 10 39
e 10 40
e 10 44
e 10 48
e 10 53
e 10 57
e 10 59
e 10 60
e 10 61
e 10 62
e 10 68
e 10 69
e 10 70
e 10 72
e 10 76
e 10 80
e 10 84
e 10 86
e 10 90
e 10 91
e 10 94
e 10 95
e 10 96
e 10 100
e 11 14
e 11 18
e 11 22
e 11 23
e 11 24
e 11 25
e 11 28
e 11 30
e 11 43
e 11 45
e 11 53
e 11 57
e 11 62
e 11 74
e 11 75
e 11 76
e 11 83
e 11 84
e 11 85
e 11 92
e 12 15
e 12 43
e 12 61
e 12 64
e 12 97
e 13 17
e 13 24
e 13 53
e 13 57
e 13 63
e 13 66
e 13 72
e 13 98
e 14 18
e 14 19
e 14 33
e 14 58
e 14 60
e 14 61
e 14 78
e 14 87
e 14 92
e 15 55
e 15 59
e 16 24
e 16 46
e 16 47
e 16 94
e 17 18
e 17 19
e 17 28
e 17 35
e 17 41
e 17 53
e 17 58
e 17 71
e 17 75
e 17 79
e 17 84
e 17 88
e 18 60
e 18 97
e 19 28
e 19 54
e 19 57
e 19 63
e 19 66
e 19 83
e 20 24
e 20 35
e 20 51
e 20 56
e 20 59
e 20 71
e 21 42
e 21 59
e 22 43
e 22 55
e 22 70
e 22 72
e 23 34
e 23 45
e 23 51
e 23 56
e 23 69
e 23 87
e 23 88
e 23 96
e 23 99
e 24 27
e 24 29
e 24 43
e 24 51
e 24 55
e 24 58
e 24 64
e 24 74
e 24 89
e 24 99
e 25 26
e 25 35
e 25 48
e 25 87
e 25 98
e 26 65
e 26 77
e 26 91
e 26 100
e 27 32
e 27 36
e 27 38
e 27 85
e 28 30
e 28 48
e 28 53
e 28 60
e 28 61
e 28 95
e 29 39
e 29 50
e 29 55
e 29 85
e 29 97
e 30 40
e 30 47
e 30 48
e 30 64
e 30 81
e 31 46
e 31 58
e 31 88
e 31 92
e 31 98
e 32 35
e 32 46
e 32 59
e 32 64
e 32 83
e 33 35
e 33 37
e 33 51
e 33 62
e 33 66
e 33 81
e 33 91
e 34 40
e 34 50
e 34 78
e 34 81
e 34 100
e 35 43
e 35 53
e 35 63
e 36 50
e 36 87
e 37 44
e 37 62
e 37 65
e 37 66
e 37 68
e 37 73
e 37 80
e 37 91
e 38 53
e 38 55
e 38 66
e 38 81
e 38 93
e 38 97
e 38 98
e 39 40
e 39 73
e 39 79
e 39 88
e 39 100
e 40 83
e 40 89
e 40 93
e 41 44
e 41 51
e 41 58
e 41 60
e 41 63
e 41 76
e 41 90
e 42 55
e 42 68
e 42 69
e 42 76
e 42 77
e 42 81
e 42 93
e 42 94
e 43 45
e 43 92
e 43 96
e 43 98
e 44 57
e 44 69
e 44 93
e 45 62
e 45 68
e 45 72
e 46 49
e 46 56
e 46 64
e 46 65
e 46 66
e 47 53
e 47 56
e 47 84
e 47 91
e 47 93
e 48 50
e 48 52
e 48 71
e 48 72
e 48 87
e 49 57
e 49 81
e 49 96
e 50 52
e 50 65
e 50 86
e 50 89
e 51 55
e 52 76
e 52 77
e 52 78
e 52 80
e 52 92
e 52 96
e 53 64
e 53 68
e 53 90
e 53 97
e 54 65
e 54 66
e 54 68
e 54 79
e 54 82
e 55 56
e 55 77
e 55 97
e 55 100
e 56 79
e 57 78
e 57 79
e 57 92
e 57 96
e 57 97
e 58 74
e 58 82
e 59 86
e 59 95
e 60 68
e 60 72
e 60 77
e 61 79
e 61 82
e 61 95
e 62 74
e 62 97
e 63 67
e 63 74
e 63 94
e 63 99
e 64 74
e 64 77
e 65 86
e 65 97
e 65 99
e 66 79
e 66 97
e 67 73
e 67 75
e 67 76
e 67 87
e 68 70
e 68 87
e 68 90
e 69 74
e 69 97
e 70 76
e 70 77
e 70 87
e 70 93
e 71 73
e 71 78
e 71 92
e 72 89
e 72 97
e 73 91
e 73 97
e 74 75
e 74 93
e 74 96
e 75 81
e 75 91
e 75 93
e 75 99
e 76 82
e 76 88
e 77 92
e 78 99
e 79 81
e 79 94
e 80 92
e 81 87
e 81 92
e 81 95
e 82 90
e 83 88
e 83 99
e 84 87
e 84 97
e 85 100
e 86 92
e 86 97
e 88 91
e 88 92
e 88 99
e 89 98
e 90 95
e 93 95
e 93 96
e 96 98
e 97 100
